100 8
729 891
621 910
304 642
290 189
401 572
335 670
494 772
629 472
197 706
273 714
604 469
454 417
148 171
575 391
405 106
546 842
857 824
323 799
795 857
803 741
209 758
807 764
256 424
326 622
539 616
729 804
122 792
268 366
310 396
817 372
360 64
336 2
891 858
547 340
888 249
313 774
293 89
345 377
393 834
749 234
408 32
627 983
136 131
849 743
386 431
174 131
675 778
638 863
849 295
147 164
534 502
531 795
384 575
421 499
254 92
288 333
85 202
703 660
202 204
344 476
608 903
819 859
123 705
351 183
364 175
483 403
391 846
719 832
245 139
912 422
522 720
363 715
772 722
375 374
724 822
391 20
309 710
429 261
415 682
685 674
553 373
248 58
248 605
219 118
125 858
95 197
383 530
308 558
491 560
344 535
723 928
580 698
445 345
460 185
482 511
760 746
64 701
360 665
530 608
333 432
